c turning on binary mode checking
c parsing input formula with 202048 variables and 780990 clauses
c finished parsing, read 16382466 bytes from proof file
c detected empty clause; start verification via backward checking
c 7177 of 780990 clauses in core                            
c 8693 of 445146 lemmas in core using 50390 resolution steps
c 0 RAT lemmas in core; 454 redundant literals in core lemmas
s VERIFIED
c verification time: 1.937 seconds
